% Auto-generated by scripts/generate_dzn.py
% problem_type   = regex
% instance       = regex_68
% source_json    = instances_json/2_high_blowup/regex_68.json
% blowup         = 13.0
% representation = NFA

mode = 1;

var_count = 19;
n_constraints = 2;
Q = 13;
S = 2;
q0 = [1, 1];
F = [{13}, {10}];
weights = [5, 9, 8, 6, 4, 4, 4, 1, 2, 10, 9, 1, 9, 10, 1, 7, 3, 6, 9];
d_dfa = array3d(1..2, 1..13, 1..2, [
  % k = 1
    0, 0,
    0, 0,
    0, 0,
    0, 0,
    0, 0,
    0, 0,
    0, 0,
    0, 0,
    0, 0,
    0, 0,
    0, 0,
    0, 0,
    0, 0,

  % k = 2
    0, 0,
    0, 0,
    0, 0,
    0, 0,
    0, 0,
    0, 0,
    0, 0,
    0, 0,
    0, 0,
    0, 0,
    0, 0,
    0, 0,
    0, 0
]);
d_nfa = array3d(1..2, 1..13, 1..2, [
  % k = 1
    {1, 2}, {1},
    {}, {3},
    {4}, {},
    {5}, {5},
    {6}, {6},
    {7}, {7},
    {8}, {8},
    {9}, {9},
    {10}, {10},
    {11}, {11},
    {12}, {12},
    {13}, {13},
    {}, {},

  % k = 2
    {2}, {1},
    {3}, {2},
    {4}, {3},
    {5}, {4},
    {6}, {5},
    {7}, {6},
    {8}, {7},
    {9}, {8},
    {10}, {9},
    {}, {10},
    {}, {},
    {}, {},
    {}, {}
]);
